solution/p_2_9.txt_600.col.log
CPXPARAM_TimeLimit                               600
CPXPARAM_WorkMem                                 4096
CPXPARAM_Threads                                 1
Found incumbent of value 0,000000 after 0,00 sec. (0,00 ticks)
Tried aggregator 1 time.
MIP Presolve eliminated 3 rows and 49 columns.
MIP Presolve modified 7 coefficients.
Reduced MIP has 17 rows, 37 columns, and 71 nonzeros.
Reduced MIP has 37 binaries, 0 generals, 0 SOSs, and 0 indicators.
Presolve time = 0,00 sec. (0,21 ticks)
Probing time = 0,00 sec. (0,02 ticks)
Tried aggregator 1 time.
MIP Presolve eliminated 8 rows and 18 columns.
Reduced MIP has 9 rows, 19 columns, and 37 nonzeros.
Reduced MIP has 19 binaries, 0 generals, 0 SOSs, and 0 indicators.
Presolve time = 0,00 sec. (0,04 ticks)
Probing time = 0,00 sec. (0,01 ticks)
Tried aggregator 1 time.
Reduced MIP has 9 rows, 19 columns, and 37 nonzeros.
Reduced MIP has 19 binaries, 0 generals, 0 SOSs, and 0 indicators.
Presolve time = 0,00 sec. (0,03 ticks)
Probing time = 0,00 sec. (0,01 ticks)
Clique table members: 11.
MIP emphasis: balance optimality and feasibility.
MIP search method: dynamic search.
Parallel mode: none, using 1 thread.
Root relaxation solution time = 0,00 sec. (0,02 ticks)

        Nodes                                         Cuts/
   Node  Left     Objective  IInf  Best Integer    Best Bound    ItCnt     Gap

*     0+    0                           61,0000      297,0000           386,89%
      0     0      125,0000     1       61,0000      125,0000        4  104,92%
*     0+    0                          120,0000      125,0000             4,17%
*     0     0      integral     0      122,0000       Cuts: 2       11    0,00%
      0     0        cutoff            122,0000      122,0000       11    0,00%
Elapsed time = 0,01 sec. (1,65 ticks, tree = 0,01 MB, solutions = 4)

GUB cover cuts applied:  1
Gomory fractional cuts applied:  1

Root node processing (before b&c):
  Real time             =    0,01 sec. (1,66 ticks)
Sequential b&c:
  Real time             =    0,00 sec. (0,00 ticks)
                          ------------
Total (root+branch&cut) =    0,01 sec. (1,66 ticks)
